(declare-fun d3 () Real)
(declare-fun c3 () Real)
(declare-fun b3 () Real)
(declare-fun d2 () Real)
(declare-fun c2 () Real)
(declare-fun b2 () Real)
(declare-fun d1 () Real)
(declare-fun c1 () Real)
(declare-fun b1 () Real)
(declare-fun d0 () Real)
(declare-fun c0 () Real)
(declare-fun b0 () Real)
(declare-fun a3 () Real)
(declare-fun a2 () Real)
(declare-fun a1 () Real)
(declare-fun a0 () Real)
(assert (let ((a!1 (or (and (= b0 1.0) (and (= a0 0.0) (= a1 0.0)))
               (and (= c0 1.0) (and (= a0 0.0) (= a1 0.0)))
               (and (= d0 1.0) (and (= a0 0.0) (= a1 0.0)))
               (and (= b1 1.0) (and (= a0 1.0) (= a1 0.0)))
               (and (= c1 1.0) (and (= a0 1.0) (= a1 0.0)))
               (and (= d1 1.0) (and (= a0 1.0) (= a1 0.0)))
               (and (= b2 1.0) (and (= a0 0.0) (= a1 1.0)))
               (and (= c2 1.0) (and (= a0 0.0) (= a1 1.0)))
               (and (= d2 1.0) (and (= a0 0.0) (= a1 1.0)))
               (and (= b3 1.0) (and (= a0 1.0) (= a1 1.0)))
               (and (= c3 1.0) (and (= a0 1.0) (= a1 1.0)))
               (and (= d3 1.0) (and (= a0 1.0) (= a1 1.0))))))
  (and a!1
       (>= a0 0.0)
       (<= a0 1.0)
       (>= a1 0.0)
       (<= a1 1.0)
       (>= a2 0.0)
       (<= a2 1.0)
       (>= a3 0.0)
       (<= a3 1.0)
       (>= b0 0.0)
       (<= b0 1.0)
       (>= c0 0.0)
       (<= c0 1.0)
       (>= d0 0.0)
       (<= d0 1.0)
       (>= b1 0.0)
       (<= b1 1.0)
       (>= c1 0.0)
       (<= c1 1.0)
       (>= d1 0.0)
       (<= d1 1.0)
       (>= b2 0.0)
       (<= b2 1.0)
       (>= c2 0.0)
       (<= c2 1.0)
       (>= d2 0.0)
       (<= d2 1.0)
       (>= b3 0.0)
       (<= b3 1.0)
       (>= c3 0.0)
       (<= c3 1.0)
       (>= d3 0.0)
       (<= d3 1.0))))

